0 11 114
1 76 4
2 178 9
3 649 23
4 258 274
5 1 163
6 199 599
7 434 39
8 171 233
9 158 308
10 576 124
11 13 2
12 0 1
13 322 2
14 722 164
15 363 20
16 161 145
17 21 443
18 58 621
19 361 0
20 48 1
21 805 570
22 45 1
23 442 694
24 677 166
25 30 495
26 95 472
27 213 13
28 95 9
29 213 487
30 601 376
31 91 25
32 538 874
33 26 116
34 558 0
35 120 78
36 551 5
37 301 207
38 186 63
39 178 154
40 130 15
41 258 96
42 691 231
43 818 97
44 816 374
45 14 656
46 231 297
47 20 26
48 242 236
49 456 490
50 32 156
51 340 149
52 73 50
53 166 129
54 84 322
55 113 59
56 784 645
57 223 465
58 458 257
59 626 95
60 350 255
61 2 28
62 237 24
63 98 13
64 234 93
65 530 844
66 169 758
67 173 826
68 232 67
69 111 935
70 448 743